10 45
1 2 0
1 3 3
1 4 12
1 5 2
1 6 16
1 7 1
1 8 19
1 9 25
1 10 23
2 3 21
2 4 26
2 5 13
2 6 12
2 7 24
2 8 3
2 9 3
2 10 18
3 4 6
3 5 16
3 6 20
3 7 22
3 8 29
3 9 9
3 10 19
4 5 28
4 6 24
4 7 11
4 8 28
4 9 20
4 10 23
5 6 22
5 7 17
5 8 21
5 9 26
5 10 2
6 7 17
6 8 28
6 9 21
6 10 19
7 8 13
7 9 29
7 10 26
8 9 2
8 10 26
9 10 4
